1 1349 7
2 1151 7
3 1108 7
5 1079 7
12 1069 7
13 1068 7
24 1065 7
28 1059 7
33 1054 7
59 1041 7
133 1030 7
153 1029 7
181 1018 7
819 1009 7



1 1265 7
2 1163 7
3 1080 7
10 1055 7
14 1049 7
15 1048 7
45 1043 7
64 1038 7
83 1031 7
158 1011 7
277 989 7



1 1301 7
2 1097 7
4 1087 7
8 1073 7
17 1064 7
24 1059 7
27 1031 7
244 1029 7
431 1016 7



1 1269 7
2 1189 7
3 1137 7
4 1136 7
5 1123 7
6 1121 7
7 1106 7
8 1098 7
10 1032 7
102 1027 7
244 1024 7
546 1022 7
568 1014 7



1 1316 7
2 1110 7
4 1066 7
13 1065 7
21 1062 7
24 1053 7
60 1044 7
126 1039 7
131 1029 7
306 1009 7
953 997 7



